
        $ From http://www.csplib.org/Problems/prob009/data/helmut.pdf
        $ Problem number 123
        $ Sequence length : 25
        language ESSENCE' 1.0
        letting sizemaster be 396
        letting sizes be sequence(1,4,5,14,16,32,35,36,46,47,48,49,68,69,73,93,94,97,99,104,110,111,125,126,160)
        